182
334
179
0
237
228
245
98
79
170
190
147
203
166
315
135
115
165
208
187
253
263
136
437
186
284
60
128
277
431
192
74
93
97
212
170
68
400
158
214
160
228
116
291
184
202
240
114
185
452
112
136
517
83
153
138
133
227
122
140
314
288
104
244
129
133
183
161
97
126
206
318
286
0
334
207
353
173
95
116
71
164
111
95
121
133
58
157
236
139
170
183
88
102
217
179
102
145
303
254
